Copyright (C) 2013-2015, Filipe Brandao
Build (method = -2)
  #dp: 71828
  Step-3' Graph: 387 vertices and 28479 arcs (0.20s)
  Step-4' Graph: 381 vertices and 28467 arcs (0.21s)
  #V4/#V3 = 0.98
  #A4/#A3 = 1.00
Ready! (0.21s)
Optimize a model with 675 rows, 28468 columns and 84646 nonzeros
Presolve removed 136 rows and 137 columns
Presolve time: 0.15s
Presolved: 539 rows, 28331 columns, 84164 nonzeros
Variable types: 0 continuous, 28331 integer (7646 binary)
Optimize a model with 539 rows, 28331 columns and 84164 nonzeros
Presolved: 539 rows, 28331 columns, 84164 nonzeros

Root barrier log...

Ordering time: 0.01s

Barrier statistics:
 AA' NZ     : 5.384e+04
 Factor NZ  : 9.987e+04 (roughly 12 MBytes of memory)
 Factor Ops : 2.535e+07 (less than 1 second per iteration)
 Threads    : 1

                  Objective                Residual
Iter       Primal          Dual         Primal    Dual     Compl     Time
   0   1.39333525e+05 -8.01595248e+05  1.91e+06 7.66e-02  3.57e+02     0s
   1   3.60901916e+04 -2.10275198e+05  2.20e+05 7.60e-02  4.36e+01     0s
   2   5.45213197e+03 -5.64553861e+04  1.33e+04 3.22e-15  3.41e+00     0s
   3   2.28252913e+03 -2.23842798e+04  1.62e+03 1.21e-03  6.69e-01     0s
   4   1.33491594e+03 -8.35275785e+03  4.04e+02 1.63e-04  2.20e-01     0s
   5   9.83627121e+02 -4.26871488e+03  1.70e+02 2.22e-15  1.11e-01     0s
   6   8.51833817e+02 -2.62918741e+03  9.95e+01 1.55e-15  7.00e-02     0s
   7   7.24854945e+02 -1.97104193e+03  4.27e+01 1.11e-15  5.08e-02     0s
   8   6.38936920e+02 -1.35967603e+03  1.99e+01 7.77e-16  3.66e-02     0s
   9   5.75233678e+02 -8.24326840e+02  1.26e+01 4.44e-16  2.54e-02     0s
  10   5.62244230e+02 -6.63213427e+02  1.16e+01 5.55e-16  2.23e-02     0s
  11   5.41366911e+02 -3.45117543e+02  1.04e+01 4.75e-16  1.62e-02     0s
  12   4.96530188e+02 -9.44329242e+01  7.16e+00 3.55e-16  1.07e-02     0s
  13   4.77495255e+02 -4.20451128e+01  6.17e+00 4.44e-16  9.43e-03     0s
  14   4.08316623e+02  1.18203459e+02  2.96e+00 3.38e-16  5.23e-03     0s
  15   3.71852487e+02  2.03187501e+02  1.44e+00 3.33e-16  3.03e-03     0s
  16   3.60161594e+02  2.56772880e+02  9.79e-01 3.33e-16  1.86e-03     0s
  17   3.51822477e+02  2.67644203e+02  6.66e-01 3.74e-16  1.51e-03     0s
  18   3.48989923e+02  2.88334482e+02  5.45e-01 3.33e-16  1.09e-03     0s
  19   3.45097857e+02  3.01813714e+02  3.97e-01 3.62e-16  7.74e-04     0s
  20   3.44852142e+02  3.02512280e+02  3.87e-01 4.07e-16  7.57e-04     0s
  21   3.44123584e+02  3.05311997e+02  3.57e-01 4.36e-16  6.94e-04     0s
  22   3.41925149e+02  3.13770905e+02  2.64e-01 4.22e-16  5.03e-04     0s
  23   3.39189079e+02  3.17173959e+02  1.37e-01 4.72e-16  3.91e-04     0s
  24   3.38067256e+02  3.24074418e+02  7.85e-02 3.33e-16  2.48e-04     0s
  25   3.37624277e+02  3.24398351e+02  6.12e-02 3.67e-16  2.34e-04     0s
  26   3.36887417e+02  3.29598515e+02  3.18e-02 3.48e-16  1.29e-04     0s
  27   3.36664976e+02  3.30715768e+02  2.39e-02 3.25e-16  1.05e-04     0s
  28   3.36349768e+02  3.32093773e+02  1.28e-02 3.84e-16  7.51e-05     0s
  29   3.36196177e+02  3.33605830e+02  8.67e-03 3.33e-16  4.57e-05     0s
  30   3.36048217e+02  3.34374032e+02  5.18e-03 2.44e-16  2.95e-05     0s
  31   3.35947093e+02  3.34410844e+02  3.41e-03 3.58e-16  2.71e-05     0s
  32   3.35877478e+02  3.34691678e+02  2.62e-03 3.78e-16  2.09e-05     0s
  33   3.35848829e+02  3.35045055e+02  2.04e-03 3.64e-16  1.42e-05     0s
  34   3.35802433e+02  3.35188814e+02  1.25e-03 3.51e-16  1.08e-05     0s
  35   3.35769646e+02  3.35286466e+02  8.95e-04 3.77e-16  8.52e-06     0s
  36   3.35761032e+02  3.35306193e+02  8.13e-04 3.60e-16  8.02e-06     0s
  37   3.35750022e+02  3.35407902e+02  7.04e-04 3.42e-16  6.03e-06     0s
  38   3.35733611e+02  3.35428931e+02  5.50e-04 3.33e-16  5.37e-06     0s
  39   3.35714736e+02  3.35566946e+02  3.73e-04 2.69e-16  2.61e-06     0s
  40   3.35682436e+02  3.35631923e+02  3.21e-05 3.33e-16  8.90e-07     1s
  41   3.35673916e+02  3.35668413e+02  6.76e-06 3.76e-16  9.70e-08     1s
  42   3.35671024e+02  3.35670960e+02  3.40e-08 3.33e-16  1.12e-09     1s
  43   3.35670991e+02  3.35670991e+02  4.85e-11 3.33e-16  2.91e-14     1s

Barrier solved model in 43 iterations and 0.54 seconds
Optimal objective 3.35670991e+02


Root relaxation: objective 3.356710e+02, 871 iterations, 0.56 seconds

    Nodes    |    Current Node    |     Objective Bounds      |     Work
 Expl Unexpl |  Obj  Depth IntInf | Incumbent    BestBd   Gap | It/Node Time

     0     0  335.67099    0   83          -  335.67099     -      -    1s
H    0     0                     338.0000000  335.67099  0.69%     -    1s
H    0     0                     336.0000000  335.67099  0.10%     -    1s

Explored 0 nodes (2539 simplex iterations) in 1.93 seconds
Thread count was 1 (of 4 available processors)

Optimal solution found (tolerance 0.00e+00)
Best objective 3.360000000000e+02, best bound 3.360000000000e+02, gap 0.0%
Preprocessing time: 0.25 seconds
Gurobi run time: 1.93 seconds
Total run time: 2.18 seconds
Objective: 336
Solution:
2 x [i=1, i=251]
1 x [i=2, i=252]
1 x [i=3, i=254]
2 x [i=4, i=248]
3 x [i=5, i=248]
2 x [i=6, i=250]
1 x [i=7, i=246]
2 x [i=7, i=254]
1 x [i=8, i=245]
1 x [i=9, i=245]
1 x [i=9, i=256]
1 x [i=10, i=244]
1 x [i=11, i=243]
1 x [i=11, i=244]
2 x [i=11, i=287, i=291]
1 x [i=11, i=289, i=289]
1 x [i=12, i=242]
1 x [i=13, i=241]
1 x [i=13, i=242]
1 x [i=13, i=287, i=289]
3 x [i=14, i=240]
1 x [i=14, i=287, i=288]
1 x [i=15, i=239]
1 x [i=15, i=287, i=287]
3 x [i=16, i=238]
1 x [i=17, i=238]
2 x [i=18, i=237]
1 x [i=19, i=236]
2 x [i=20, i=236]
1 x [i=20, i=279, i=292]
2 x [i=21, i=234]
1 x [i=22, i=233]
1 x [i=23, i=233]
1 x [i=23, i=234]
2 x [i=23, i=235]
1 x [i=23, i=279, i=289]
2 x [i=24, i=276, i=292]
2 x [i=25, i=232]
1 x [i=25, i=273, i=294]
2 x [i=26, i=231]
1 x [i=27, i=230]
1 x [i=27, i=231]
1 x [i=28, i=228]
1 x [i=29, i=226]
1 x [i=30, i=225]
2 x [i=30, i=227]
1 x [i=30, i=273, i=287]
1 x [i=31, i=224]
2 x [i=31, i=268, i=292]
2 x [i=31, i=278, i=283]
1 x [i=32, i=223]
1 x [i=33, i=222]
2 x [i=33, i=223]
1 x [i=34, i=221]
2 x [i=35, i=220]
3 x [i=35, i=221]
1 x [i=36, i=221]
1 x [i=36, i=268, i=287]
1 x [i=36, i=275, i=281]
1 x [i=37, i=219]
2 x [i=38, i=218]
1 x [i=38, i=266, i=287]
2 x [i=39, i=217]
1 x [i=39, i=262]
1 x [i=40, i=216]
1 x [i=40, i=217]
1 x [i=41, i=215]
2 x [i=41, i=258, i=293]
1 x [i=41, i=261, i=290]
1 x [i=41, i=268, i=284]
2 x [i=41, i=274, i=278]
1 x [i=42, i=265, i=286]
1 x [i=42, i=273, i=278]
1 x [i=43, i=214]
5 x [i=44, i=213]
3 x [i=45, i=212]
1 x [i=45, i=213]
5 x [i=46, i=211]
3 x [i=47, i=210]
4 x [i=48, i=209]
1 x [i=49, i=208]
1 x [i=50, i=207]
1 x [i=50, i=269, i=274]
2 x [i=51, i=206]
1 x [i=51, i=265, i=277]
2 x [i=52, i=205]
2 x [i=53, i=204]
2 x [i=54, i=203]
1 x [i=55, i=203]
1 x [i=55, i=256, i=284]
1 x [i=55, i=259, i=279]
1 x [i=55, i=264, i=274]
3 x [i=56, i=202]
1 x [i=57, i=201]
1 x [i=57, i=261, i=276]
1 x [i=58, i=260, i=276]
2 x [i=58, i=266, i=270]
1 x [i=59, i=200]
2 x [i=60, i=199]
1 x [i=60, i=200]
1 x [i=61, i=198]
2 x [i=61, i=264, i=269]
1 x [i=61, i=265, i=268]
2 x [i=62, i=197]
3 x [i=63, i=196]
2 x [i=64, i=196]
1 x [i=65, i=195]
1 x [i=65, i=196]
3 x [i=66, i=194]
1 x [i=67, i=194]
2 x [i=67, i=195]
2 x [i=68, i=193]
2 x [i=68, i=257, i=269]
1 x [i=68, i=259, i=267]
1 x [i=69, i=190]
3 x [i=69, i=191]
1 x [i=70, i=189]
1 x [i=71, i=190]
1 x [i=72, i=188]
2 x [i=72, i=189]
1 x [i=73, i=187]
1 x [i=74, i=185]
1 x [i=75, i=185]
1 x [i=76, i=184]
1 x [i=76, i=186]
3 x [i=77, i=183]
1 x [i=78, i=181]
1 x [i=78, i=183]
1 x [i=79, i=182]
4 x [i=80, i=180]
2 x [i=81, i=179]
2 x [i=81, i=180]
1 x [i=82, i=177]
2 x [i=82, i=178]
1 x [i=83, i=179]
2 x [i=84, i=176]
1 x [i=84, i=177]
1 x [i=85, i=174]
1 x [i=86, i=174]
1 x [i=87, i=173]
2 x [i=88, i=170]
1 x [i=88, i=175]
1 x [i=88, i=256]
2 x [i=89, i=171]
2 x [i=89, i=249, i=255]
1 x [i=90, i=248, i=255]
1 x [i=90, i=253, i=254]
1 x [i=91, i=172]
1 x [i=91, i=173]
1 x [i=92, i=168]
2 x [i=92, i=169]
1 x [i=92, i=172]
1 x [i=93, i=167]
1 x [i=93, i=229, i=272]
1 x [i=93, i=247, i=254]
1 x [i=93, i=253, i=253]
1 x [i=93, i=255, i=256]
2 x [i=94, i=166]
1 x [i=94, i=217, i=283]
1 x [i=95, i=165]
1 x [i=95, i=214, i=285]
1 x [i=95, i=235, i=267]
1 x [i=96, i=234, i=263]
2 x [i=97, i=164]
1 x [i=98, i=205, i=291]
1 x [i=98, i=211, i=285]
1 x [i=99, i=163]
2 x [i=99, i=205, i=290]
1 x [i=99, i=213, i=283]
2 x [i=100, i=162]
1 x [i=101, i=161]
1 x [i=101, i=214, i=280]
1 x [i=101, i=236, i=257]
2 x [i=102, i=160]
1 x [i=103, i=158]
2 x [i=104, i=157]
1 x [i=105, i=156]
1 x [i=105, i=158]
1 x [i=106, i=157]
1 x [i=107, i=158]
2 x [i=108, i=155]
1 x [i=108, i=157]
2 x [i=109, i=154]
1 x [i=110, i=192, i=293]
4 x [i=111, i=153]
2 x [i=112, i=152]
1 x [i=112, i=192, i=290]
1 x [i=112, i=196, i=285]
2 x [i=113, i=151]
2 x [i=114, i=150]
2 x [i=115, i=149]
3 x [i=116, i=149]
2 x [i=117, i=148]
2 x [i=117, i=150]
1 x [i=118, i=147]
1 x [i=118, i=148]
1 x [i=118, i=186, i=291]
1 x [i=119, i=145]
1 x [i=119, i=146]
1 x [i=120, i=144]
1 x [i=120, i=146]
1 x [i=121, i=144]
1 x [i=121, i=191, i=283]
3 x [i=122, i=143]
1 x [i=122, i=184, i=289]
3 x [i=123, i=142]
1 x [i=124, i=142]
1 x [i=125, i=142]
2 x [i=126, i=139]
3 x [i=126, i=141]
2 x [i=127, i=138]
1 x [i=127, i=140]
2 x [i=128, i=192, i=276]
1 x [i=128, i=196, i=271]
2 x [i=129, i=137]
1 x [i=129, i=185, i=282]
2 x [i=130, i=186, i=280]
1 x [i=130, i=192, i=274]
3 x [i=131, i=135]
1 x [i=132, i=134]
2 x [i=133, i=133]
1 x [i=134, i=195, i=263]
1 x [i=136, i=186, i=272]
1 x [i=159, i=160, i=271]
1 x [i=160, i=177, i=254]
